%Number of test platforms
np = 4;                                    

%Name of the platforms
n = ["nvidia_force","amd_tactile","intel_fused","nxp_force","simple_pressure_sensor","capacitive and resistive flexible force sensor","piezoeletric","strain gauge based"];
% force_sensor = [0,"simple_pressure_sensor","capacitive and resistive flexible force sensor","piezoeletric","strain gauge based","other sensor technologies"];
%Platform properties
dd =             [| 1,   1,   50, 400, 1, 1, 0, 0     % PF1
                  | 2,   0,  100, 100, 0, 0, 0, 0    % PF2
                  | 3,   0,   10, 400, 0, 0, 0, 0   % PF3
                  | 4,   1,    0,  50, 0, 0, 1, 1|];  % PF4

%Thresholds
min_force_sensor_count   = 1;
min_tactile_sensor_count = 100;
min_memory_fused         = 400;

platforms = {1,2,3,4};

